14
1 0 18
2 0 8
2 1 14
3 0 7
3 1 18
3 2 30
4 0 6
4 1 5
4 2 32
4 3 24
5 0 20
5 1 1
5 2 4
5 3 17
5 4 1
6 0 23
6 1 21
6 2 16
6 3 3
6 4 3
6 5 26
7 0 12
7 1 22
7 2 24
7 3 12
7 4 21
7 5 19
7 6 13
8 0 10
8 1 25
8 2 32
8 3 15
8 4 18
8 5 25
8 6 18
8 7 30
9 0 12
9 1 1
9 2 29
9 3 10
9 4 7
9 5 28
9 6 24
9 7 1
9 8 26
10 0 30
10 1 7
10 2 30
10 3 4
10 4 10
10 5 14
10 6 25
10 7 16
10 8 3
10 9 17
11 0 1
11 1 27
11 2 3
11 3 6
11 4 21
11 5 27
11 6 5
11 7 30
11 8 6
11 9 22
11 10 27
12 0 13
12 1 11
12 2 11
12 3 28
12 4 17
12 5 13
12 6 31
12 7 6
12 8 7
12 9 23
12 10 17
12 11 25
13 0 30
13 1 4
13 2 28
13 3 27
13 4 16
13 5 4
13 6 32
13 7 2
13 8 23
13 9 13
13 10 25
13 11 8
13 12 30
